c DCNF-Autarky [version 0.0.1]. 
c Copyright (c) 2018-2019 Swansea University. 
c 
c Input QBF/DQBF path: Scholl18//C432.blif_0.10_0.20_0_0_inp_exact.qdimacs
c Output SAT Translation Path: /tmp/C432.blif_0.10_0.20_0_0_inp_exact.qdimacs-dcnfAutarky.dimacs
c Input Clause Count (tautology free): 1555
c
c Performing E1-Autarky iteration.
c Remaining clauses count after E-Reduction: 1553
c
c Performing A1-Autarky iteration.
c Running Lingeling ... 
c
c Remaining clauses count after A-Reduction: 1553
c
c Input Parameter (command line, file): 
c input filename   Scholl18//C432.blif_0.10_0.20_0_0_inp_exact.qdimacs
c output filename  /tmp/C432.blif_0.10_0.20_0_0_inp_exact.qdimacs-dcnfAutarky.dimacs
c autarky level    1
c conformity level 0
c encoding type    2
c no.of var        622
c no.of clauses    1555
c no.of taut cls   0
c 
c Output Parameters: 
c remaining no.of clauses  1553
c
c filename pn pc autarky ntaut rpa rpe rpcdiff result
c "Scholl18//C432.blif_0.10_0.20_0_0_inp_exact.qdimacs" 622 1555 "E1+A1" 0 12 609 2 "RED" 
c Total time taken 1 secs.
c
p cnf 622 1553
e 324 0
a 313 0
e 325 0
a 312 0
e 326 327 0
a 322 0
e 328 329 330 331 332 333 334 335 336 337 0
a 314 315 0
e 338 339 340 341 0
a 316 317 0
e 342 0
a 321 0
e 343 344 345 346 347 348 349 350 351 0
a 323 0
e 352 353 354 355 356 357 358 359 360 0
a 318 319 320 0
e 1 2 3 4 5 6 7 8 9 10 11 12 13 14 15 16 17 18 19 20 21 22 23 24 25 26 27 28 29 30 31 32 33 34 35 36 37 38 39 40 41 42 43 44 45 46 47 48 49 50 51 52 53 54 55 56 57 58 59 60 61 62 63 64 65 66 67 68 69 70 71 72 73 74 75 76 77 78 79 80 81 82 83 84 85 86 87 88 89 90 91 92 93 94 95 96 97 98 99 100 101 102 103 104 105 106 107 108 109 110 111 112 113 114 115 116 117 118 119 120 121 122 123 124 125 126 127 128 129 130 131 132 133 134 135 136 137 138 139 140 141 142 143 144 145 146 147 148 149 150 151 152 153 154 155 156 157 158 159 160 161 162 163 164 165 166 167 168 169 170 171 172 173 174 175 176 177 178 179 180 181 182 183 184 185 186 187 188 189 190 191 192 193 194 195 196 197 198 199 200 201 202 203 204 205 206 207 208 209 210 211 212 213 214 215 216 217 218 219 220 221 222 223 224 225 226 227 228 229 230 231 232 233 234 235 236 237 238 239 240 241 242 243 244 245 246 247 248 249 250 251 252 253 254 255 256 257 258 259 260 261 262 263 264 265 266 267 268 269 270 271 272 273 274 275 276 277 278 279 280 281 282 283 284 285 286 287 288 289 290 291 292 293 294 295 296 297 298 299 300 301 302 303 304 305 306 307 308 309 310 311 361 362 363 364 365 366 367 368 369 370 371 372 373 374 375 376 377 378 379 380 381 382 383 384 385 386 387 388 389 390 391 392 393 394 395 396 397 398 399 400 401 402 403 404 405 406 407 408 409 410 411 412 413 414 415 416 417 418 419 420 421 422 423 424 425 426 427 428 429 430 431 432 433 434 435 436 437 438 439 440 441 442 443 444 445 446 447 448 449 450 451 452 453 454 455 456 457 458 459 460 461 462 463 464 465 466 467 468 469 470 471 472 473 474 475 476 477 478 479 480 481 482 483 484 485 486 487 488 489 490 491 492 493 494 495 496 497 498 499 500 501 502 503 504 505 506 507 508 509 510 511 512 513 514 515 516 517 518 519 520 521 522 523 524 525 526 527 528 529 530 531 532 533 534 535 536 537 538 539 540 541 542 543 544 545 546 547 548 549 550 551 552 553 554 555 556 557 558 559 560 561 562 563 564 565 566 567 568 569 570 571 572 573 574 575 576 577 578 579 580 581 582 583 584 585 586 587 588 589 590 591 592 593 594 595 596 597 598 599 600 601 602 603 604 605 606 607 608 609 610 611 612 613 614 615 616 617 618 619 620 621 622 0
-37 -1 0
37 1 0
-38 37 0
-38 2 0
38 -37 -2 0
-39 -38 0
39 38 0
-40 -4 0
40 4 0
-41 40 0
-41 6 0
41 -40 -6 0
-42 -41 0
42 41 0
-43 -8 0
43 8 0
-44 43 0
-44 10 0
44 -43 -10 0
-45 -44 0
45 44 0
-46 -12 0
46 12 0
-47 46 0
-47 14 0
47 -46 -14 0
-48 -47 0
48 47 0
-49 -16 0
49 16 0
-50 49 0
-50 18 0
50 -49 -18 0
-51 -50 0
51 50 0
-52 -20 0
52 20 0
-53 52 0
-53 22 0
53 -52 -22 0
-54 -53 0
54 53 0
-55 -24 0
55 24 0
-56 55 0
-56 26 0
56 -55 -26 0
-57 -56 0
57 56 0
-58 -28 0
58 28 0
-59 58 0
-59 30 0
59 -58 -30 0
-60 -59 0
60 59 0
-61 -32 0
61 32 0
-62 61 0
-62 34 0
62 -61 -34 0
-63 -62 0
63 62 0
-64 39 0
-64 42 0
-64 45 0
-64 48 0
-64 51 0
-64 54 0
-64 57 0
-64 60 0
-64 63 0
64 -63 -60 -57 -54 -51 -48 -45 -42 -39 0
-65 -64 0
65 64 0
-66 -64 0
66 64 0
-67 -66 0
-67 39 0
67 66 -39 0
-68 66 0
-68 -39 0
68 -66 39 0
69 -67 0
69 -68 0
-69 68 67 0
-70 -2 0
70 2 0
-71 -3 0
-71 -70 0
71 70 3 0
-72 69 0
-72 71 0
72 -71 -69 0
-73 -72 0
73 72 0
-74 -66 0
-74 42 0
74 66 -42 0
-75 66 0
-75 -42 0
75 -66 42 0
76 -74 0
76 -75 0
-76 75 74 0
-77 -6 0
77 6 0
-78 -7 0
-78 -77 0
78 77 7 0
-79 76 0
-79 78 0
79 -78 -76 0
-80 -79 0
80 79 0
-81 -66 0
-81 45 0
81 66 -45 0
-82 66 0
-82 -45 0
82 -66 45 0
83 -81 0
83 -82 0
-83 82 81 0
-84 -10 0
84 10 0
-85 -11 0
-85 -84 0
85 84 11 0
-86 83 0
-86 85 0
86 -85 -83 0
-87 -86 0
87 86 0
-88 -66 0
-88 48 0
88 66 -48 0
-89 66 0
-89 -48 0
89 -66 48 0
90 -88 0
90 -89 0
-90 89 88 0
-91 -14 0
91 14 0
-92 -15 0
-92 -91 0
92 91 15 0
-93 90 0
-93 92 0
93 -92 -90 0
-94 -93 0
94 93 0
-95 -66 0
-95 51 0
95 66 -51 0
-96 66 0
-96 -51 0
96 -66 51 0
97 -95 0
97 -96 0
-97 96 95 0
-98 -18 0
98 18 0
-99 -19 0
-99 -98 0
99 98 19 0
-100 97 0
-100 99 0
100 -99 -97 0
-101 -100 0
101 100 0
-102 -66 0
-102 54 0
102 66 -54 0
-103 66 0
-103 -54 0
103 -66 54 0
104 -102 0
104 -103 0
-104 103 102 0
-105 -22 0
105 22 0
-106 -23 0
-106 -105 0
106 105 23 0
-107 104 0
-107 106 0
107 -106 -104 0
-108 -107 0
108 107 0
-109 -66 0
-109 57 0
109 66 -57 0
-110 66 0
-110 -57 0
110 -66 57 0
111 -109 0
111 -110 0
-111 110 109 0
-112 -26 0
112 26 0
-113 -27 0
-113 -112 0
113 112 27 0
-114 111 0
-114 113 0
114 -113 -111 0
-115 -114 0
115 114 0
-116 -66 0
-116 60 0
116 66 -60 0
-117 66 0
-117 -60 0
117 -66 60 0
118 -116 0
118 -117 0
-118 117 116 0
-119 -30 0
119 30 0
-120 -31 0
-120 -119 0
120 119 31 0
-121 118 0
-121 120 0
121 -120 -118 0
-122 -121 0
122 121 0
-123 -66 0
-123 63 0
123 66 -63 0
-124 66 0
-124 -63 0
124 -66 63 0
125 -123 0
125 -124 0
-125 124 123 0
-126 -34 0
126 34 0
-127 -35 0
-127 -126 0
127 126 35 0
-128 125 0
-128 127 0
128 -127 -125 0
-129 -128 0
129 128 0
-130 73 0
-130 80 0
-130 87 0
-130 94 0
-130 101 0
-130 108 0
-130 115 0
-130 122 0
-130 129 0
130 -129 -122 -115 -108 -101 -94 -87 -80 -73 0
-131 -130 0
131 130 0
-132 -130 0
132 130 0
-133 -132 0
-133 73 0
133 132 -73 0
-134 132 0
-134 -73 0
134 -132 73 0
135 -133 0
135 -134 0
-135 134 133 0
-136 -5 0
-136 -70 0
136 70 5 0
-137 69 0
-137 136 0
137 -136 -69 0
-138 -137 0
138 137 0
-139 -138 0
139 138 0
-140 135 0
-140 139 0
140 -139 -135 0
-141 -140 0
141 140 0
-142 -132 0
-142 80 0
142 132 -80 0
-143 132 0
-143 -80 0
143 -132 80 0
144 -142 0
144 -143 0
-144 143 142 0
-145 -9 0
-145 -77 0
145 77 9 0
-146 76 0
-146 145 0
146 -145 -76 0
-147 -146 0
147 146 0
-148 -147 0
148 147 0
-149 144 0
-149 148 0
149 -148 -144 0
-150 -149 0
150 149 0
-151 -132 0
-151 87 0
151 132 -87 0
-152 132 0
-152 -87 0
152 -132 87 0
153 -151 0
153 -152 0
-153 152 151 0
-154 -13 0
-154 -84 0
154 84 13 0
-155 83 0
-155 154 0
155 -154 -83 0
-156 -155 0
156 155 0
-157 -156 0
157 156 0
-158 153 0
-158 157 0
158 -157 -153 0
-159 -158 0
159 158 0
-160 -132 0
-160 94 0
160 132 -94 0
-161 132 0
-161 -94 0
161 -132 94 0
162 -160 0
162 -161 0
-162 161 160 0
-163 -17 0
-163 -91 0
163 91 17 0
-164 90 0
-164 163 0
164 -163 -90 0
-165 -164 0
165 164 0
-166 -165 0
166 165 0
-167 162 0
-167 166 0
167 -166 -162 0
-168 -167 0
168 167 0
-169 -132 0
-169 101 0
169 132 -101 0
-170 132 0
-170 -101 0
170 -132 101 0
171 -169 0
171 -170 0
-171 170 169 0
-172 -21 0
-172 -98 0
172 98 21 0
-173 97 0
-173 172 0
173 -172 -97 0
-174 -173 0
174 173 0
-175 -174 0
175 174 0
-176 171 0
-176 175 0
176 -175 -171 0
-177 -176 0
177 176 0
-178 -132 0
-178 108 0
178 132 -108 0
-179 132 0
-179 -108 0
179 -132 108 0
180 -178 0
180 -179 0
-180 179 178 0
-181 -25 0
-181 -105 0
181 105 25 0
-182 104 0
-182 181 0
182 -181 -104 0
-183 -182 0
183 182 0
-184 -183 0
184 183 0
-185 180 0
-185 184 0
185 -184 -180 0
-186 -185 0
186 185 0
-187 -132 0
-187 115 0
187 132 -115 0
-188 132 0
-188 -115 0
188 -132 115 0
189 -187 0
189 -188 0
-189 188 187 0
-190 -29 0
-190 -112 0
190 112 29 0
-191 111 0
-191 190 0
191 -190 -111 0
-192 -191 0
192 191 0
-193 -192 0
193 192 0
-194 189 0
-194 193 0
194 -193 -189 0
-195 -194 0
195 194 0
-196 -132 0
-196 122 0
196 132 -122 0
-197 132 0
-197 -122 0
197 -132 122 0
198 -196 0
198 -197 0
-198 197 196 0
-199 -33 0
-199 -119 0
199 119 33 0
-200 118 0
-200 199 0
200 -199 -118 0
-201 -200 0
201 200 0
-202 -201 0
202 201 0
-203 198 0
-203 202 0
203 -202 -198 0
-204 -203 0
204 203 0
-205 -132 0
-205 129 0
205 132 -129 0
-206 132 0
-206 -129 0
206 -132 129 0
207 -205 0
207 -206 0
-207 206 205 0
-208 -36 0
-208 -126 0
208 126 36 0
-209 125 0
-209 208 0
209 -208 -125 0
-210 -209 0
210 209 0
-211 -210 0
211 210 0
-212 207 0
-212 211 0
212 -211 -207 0
-213 -212 0
213 212 0
-214 141 0
-214 150 0
-214 159 0
-214 168 0
-214 177 0
-214 186 0
-214 195 0
-214 204 0
-214 213 0
214 -213 -204 -195 -186 -177 -168 -159 -150 -141 0
-215 -214 0
215 214 0
-216 -64 0
216 64 0
-217 1 0
-217 216 0
217 -216 -1 0
-218 -217 0
218 217 0
-219 -130 0
219 130 0
-220 3 0
-220 219 0
220 -219 -3 0
-221 -220 0
221 220 0
-222 -214 0
222 214 0
-223 5 0
-223 222 0
223 -222 -5 0
-224 -223 0
224 223 0
-225 2 0
-225 218 0
-225 221 0
-225 224 0
225 -224 -221 -218 -2 0
-226 -225 0
226 225 0
-227 -226 0
227 226 0
-228 216 0
-228 4 0
228 -216 -4 0
-229 -228 0
229 228 0
-230 219 0
-230 7 0
230 -219 -7 0
-231 -230 0
231 230 0
-232 222 0
-232 9 0
232 -222 -9 0
-233 -232 0
233 232 0
-234 229 0
-234 231 0
-234 233 0
-234 6 0
234 -233 -231 -229 -6 0
-235 -234 0
235 234 0
-236 216 0
-236 8 0
236 -216 -8 0
-237 -236 0
237 236 0
-238 219 0
-238 11 0
238 -219 -11 0
-239 -238 0
239 238 0
-240 222 0
-240 13 0
240 -222 -13 0
-241 -240 0
241 240 0
-242 237 0
-242 239 0
-242 241 0
-242 10 0
242 -241 -239 -237 -10 0
-243 -242 0
243 242 0
-244 216 0
-244 12 0
244 -216 -12 0
-245 -244 0
245 244 0
-246 219 0
-246 15 0
246 -219 -15 0
-247 -246 0
247 246 0
-248 222 0
-248 17 0
248 -222 -17 0
-249 -248 0
249 248 0
-250 245 0
-250 247 0
-250 249 0
-250 14 0
250 -249 -247 -245 -14 0
-251 -250 0
251 250 0
-252 216 0
-252 16 0
252 -216 -16 0
-253 -252 0
253 252 0
-254 219 0
-254 19 0
254 -219 -19 0
-255 -254 0
255 254 0
-256 222 0
-256 21 0
256 -222 -21 0
-257 -256 0
257 256 0
-258 253 0
-258 255 0
-258 257 0
-258 18 0
258 -257 -255 -253 -18 0
-259 -258 0
259 258 0
-260 216 0
-260 20 0
260 -216 -20 0
-261 -260 0
261 260 0
-262 219 0
-262 23 0
262 -219 -23 0
-263 -262 0
263 262 0
-264 222 0
-264 25 0
264 -222 -25 0
-265 -264 0
265 264 0
-266 261 0
-266 263 0
-266 265 0
-266 22 0
266 -265 -263 -261 -22 0
-267 -266 0
267 266 0
-268 216 0
-268 24 0
268 -216 -24 0
-269 -268 0
269 268 0
-270 219 0
-270 27 0
270 -219 -27 0
-271 -270 0
271 270 0
-272 222 0
-272 29 0
272 -222 -29 0
-273 -272 0
273 272 0
-274 269 0
-274 271 0
-274 273 0
-274 26 0
274 -273 -271 -269 -26 0
-275 -274 0
275 274 0
-276 216 0
-276 28 0
276 -216 -28 0
-277 -276 0
277 276 0
-278 219 0
-278 31 0
278 -219 -31 0
-279 -278 0
279 278 0
-280 222 0
-280 33 0
280 -222 -33 0
-281 -280 0
281 280 0
-282 277 0
-282 279 0
-282 281 0
-282 30 0
282 -281 -279 -277 -30 0
-283 -282 0
283 282 0
-284 216 0
-284 32 0
284 -216 -32 0
-285 -284 0
285 284 0
-286 219 0
-286 35 0
286 -219 -35 0
-287 -286 0
287 286 0
-288 222 0
-288 36 0
288 -222 -36 0
-289 -288 0
289 288 0
-290 285 0
-290 287 0
-290 289 0
-290 34 0
290 -289 -287 -285 -34 0
-291 -290 0
291 290 0
-292 235 0
-292 243 0
-292 251 0
-292 259 0
-292 267 0
-292 275 0
-292 283 0
-292 291 0
292 -291 -283 -275 -267 -259 -251 -243 -235 0
-293 -227 0
-293 -292 0
293 292 227 0
-294 -251 0
294 251 0
-295 243 0
-295 294 0
295 -294 -243 0
-296 -295 0
296 295 0
-297 235 0
-297 243 0
-297 296 0
-297 259 0
297 -296 -259 -243 -235 0
-298 -297 0
298 297 0
-299 -267 0
299 267 0
-300 243 0
-300 251 0
-300 299 0
-300 259 0
300 -299 -259 -251 -243 0
-301 -300 0
301 300 0
-302 -275 0
302 275 0
-303 259 0
-303 251 0
-303 302 0
303 -302 -259 -251 0
-304 -303 0
304 303 0
-305 235 0
-305 243 0
-305 301 0
-305 304 0
305 -304 -301 -243 -235 0
-306 -305 0
306 305 0
-307 -283 0
307 283 0
-308 243 0
-308 251 0
-308 275 0
-308 307 0
308 -307 -275 -251 -243 0
-309 -308 0
309 308 0
-310 235 0
-310 296 0
-310 301 0
-310 309 0
310 -309 -301 -296 -235 0
-311 -310 0
311 310 0
-314 -361 0
314 361 0
-323 -362 0
323 362 0
-323 -363 0
323 363 0
-314 -364 0
314 364 0
-365 -364 0
315 -365 0
-315 365 364 0
-366 364 0
-315 -366 0
315 366 -364 0
367 -365 0
367 -366 0
-367 366 365 0
-368 -2 0
368 2 0
-369 -3 0
-369 -368 0
369 368 3 0
-370 367 0
-370 369 0
370 -369 -367 0
-371 -370 0
371 370 0
-372 -363 0
-372 371 0
372 -371 363 0
-373 363 0
-373 -371 0
373 371 -363 0
374 -372 0
374 -373 0
-374 373 372 0
-375 -5 0
-375 -368 0
375 368 5 0
-376 367 0
-376 375 0
376 -375 -367 0
-377 -376 0
377 376 0
-378 -377 0
378 377 0
-379 374 0
-379 378 0
379 -378 -374 0
-380 -379 0
380 379 0
-381 -4 0
381 4 0
-382 381 0
-382 6 0
382 -381 -6 0
-383 -382 0
383 382 0
-384 -364 0
-384 383 0
384 -383 364 0
-385 364 0
-385 -383 0
385 383 -364 0
386 -384 0
386 -385 0
-386 385 384 0
-387 -6 0
387 6 0
-388 -7 0
-388 -387 0
388 387 7 0
-389 386 0
-389 388 0
389 -388 -386 0
-390 -389 0
390 389 0
-391 -363 0
-391 390 0
391 -390 363 0
-392 363 0
-392 -390 0
392 390 -363 0
393 -391 0
393 -392 0
-393 392 391 0
-394 386 0
322 -394 0
-322 394 -386 0
-395 -394 0
395 394 0
-396 -395 0
396 395 0
-397 393 0
-397 396 0
397 -396 -393 0
-398 -397 0
398 397 0
-399 -8 0
399 8 0
-400 399 0
-400 10 0
400 -399 -10 0
-401 -400 0
401 400 0
-402 -364 0
-402 401 0
402 -401 364 0
-403 364 0
-403 -401 0
403 401 -364 0
404 -402 0
404 -403 0
-404 403 402 0
-405 -11 0
-313 -405 0
313 405 11 0
-406 404 0
-406 405 0
406 -405 -404 0
-407 -406 0
407 406 0
-408 -363 0
-408 407 0
408 -407 363 0
-409 363 0
-409 -407 0
409 407 -363 0
410 -408 0
410 -409 0
-410 409 408 0
-411 -13 0
-313 -411 0
313 411 13 0
-412 404 0
-412 411 0
412 -411 -404 0
-413 -412 0
413 412 0
-414 -413 0
414 413 0
-415 410 0
-415 414 0
415 -414 -410 0
-416 -415 0
416 415 0
-417 -12 0
417 12 0
-418 417 0
-418 14 0
418 -417 -14 0
-419 -418 0
419 418 0
-420 -364 0
-420 419 0
420 -419 364 0
-421 364 0
-421 -419 0
421 419 -364 0
422 -420 0
422 -421 0
-422 421 420 0
-423 -15 0
-312 -423 0
312 423 15 0
-424 422 0
-424 423 0
424 -423 -422 0
-425 -424 0
425 424 0
-426 -363 0
-426 425 0
426 -425 363 0
-427 363 0
-427 -425 0
427 425 -363 0
428 -426 0
428 -427 0
-428 427 426 0
-429 -17 0
-312 -429 0
312 429 17 0
-430 422 0
-430 429 0
430 -429 -422 0
-431 -430 0
431 430 0
-432 -431 0
432 431 0
-433 428 0
-433 432 0
433 -432 -428 0
-434 -433 0
434 433 0
-435 -16 0
435 16 0
-436 435 0
-436 18 0
436 -435 -18 0
-437 -436 0
437 436 0
-438 -364 0
-438 437 0
438 -437 364 0
-439 364 0
-439 -437 0
439 437 -364 0
440 -438 0
440 -439 0
-440 439 438 0
-441 -18 0
441 18 0
-442 -19 0
-442 -441 0
442 441 19 0
-443 440 0
-443 442 0
443 -442 -440 0
-444 -443 0
444 443 0
-445 -363 0
-445 444 0
445 -444 363 0
-446 363 0
-446 -444 0
446 444 -363 0
447 -445 0
447 -446 0
-447 446 445 0
-448 447 0
321 -448 0
-321 448 -447 0
-449 -448 0
449 448 0
-450 -20 0
450 20 0
-451 450 0
-451 22 0
451 -450 -22 0
-452 -451 0
452 451 0
-453 -364 0
-453 452 0
453 -452 364 0
-454 364 0
-454 -452 0
454 452 -364 0
455 -453 0
455 -454 0
-455 454 453 0
-456 -22 0
456 22 0
-457 -23 0
-457 -456 0
457 456 23 0
-458 455 0
-458 457 0
458 -457 -455 0
-459 -458 0
459 458 0
-460 -363 0
-460 459 0
460 -459 363 0
-461 363 0
-461 -459 0
461 459 -363 0
462 -460 0
462 -461 0
-462 461 460 0
-463 -25 0
-463 -456 0
463 456 25 0
-464 455 0
-464 463 0
464 -463 -455 0
-465 -464 0
465 464 0
-466 -465 0
466 465 0
-467 462 0
-467 466 0
467 -466 -462 0
-468 -467 0
468 467 0
-469 -363 0
316 -469 0
-316 469 363 0
-470 363 0
-316 -470 0
316 470 -363 0
471 -469 0
471 -470 0
-471 470 469 0
-472 -26 0
472 26 0
-473 -29 0
-473 -472 0
473 472 29 0
317 -474 0
-474 473 0
-317 474 -473 0
-475 -474 0
475 474 0
-476 -475 0
476 475 0
-477 471 0
-477 476 0
477 -476 -471 0
-478 -477 0
478 477 0
-479 -28 0
479 28 0
-480 479 0
-480 30 0
480 -479 -30 0
-481 -480 0
481 480 0
-482 -364 0
-482 481 0
482 -481 364 0
-483 364 0
-483 -481 0
483 481 -364 0
484 -482 0
484 -483 0
-484 483 482 0
-485 -30 0
485 30 0
-486 -31 0
-486 -485 0
486 485 31 0
-487 484 0
-487 486 0
487 -486 -484 0
-488 -487 0
488 487 0
-489 -363 0
-489 488 0
489 -488 363 0
-490 363 0
-490 -488 0
490 488 -363 0
491 -489 0
491 -490 0
-491 490 489 0
-492 -33 0
-492 -485 0
492 485 33 0
-493 484 0
-493 492 0
493 -492 -484 0
-494 -493 0
494 493 0
-495 -494 0
495 494 0
-496 491 0
-496 495 0
496 -495 -491 0
-497 -496 0
497 496 0
-498 -32 0
498 32 0
-499 498 0
-499 34 0
499 -498 -34 0
-500 -499 0
500 499 0
-501 -364 0
-501 500 0
501 -500 364 0
-502 364 0
-502 -500 0
502 500 -364 0
503 -501 0
503 -502 0
-503 502 501 0
-504 -34 0
504 34 0
-505 -35 0
-505 -504 0
505 504 35 0
-506 503 0
-506 505 0
506 -505 -503 0
-507 -506 0
507 506 0
-508 -363 0
-508 507 0
508 -507 363 0
-509 363 0
-509 -507 0
509 507 -363 0
510 -508 0
510 -509 0
-510 509 508 0
-511 -36 0
-511 -504 0
511 504 36 0
-512 503 0
-512 511 0
512 -511 -503 0
-513 -512 0
513 512 0
-514 -513 0
514 513 0
-515 510 0
-515 514 0
515 -514 -510 0
-516 -515 0
516 515 0
-517 380 0
-517 398 0
-517 416 0
-517 434 0
-517 449 0
-517 468 0
-517 478 0
-517 497 0
-517 516 0
517 -516 -497 -478 -468 -449 -434 -416 -398 -380 0
-518 -517 0
518 517 0
-314 -519 0
314 519 0
-520 1 0
-520 519 0
520 -519 -1 0
-521 -520 0
521 520 0
-323 -522 0
323 522 0
-523 3 0
-523 522 0
523 -522 -3 0
-524 -523 0
524 523 0
-525 -517 0
525 517 0
-526 5 0
-526 525 0
526 -525 -5 0
-527 -526 0
527 526 0
-528 2 0
-528 521 0
-528 524 0
-528 527 0
528 -527 -524 -521 -2 0
-529 -528 0
529 528 0
-530 -529 0
530 529 0
-531 519 0
-531 8 0
531 -519 -8 0
-532 -531 0
532 531 0
-533 522 0
-533 11 0
533 -522 -11 0
-534 -533 0
534 533 0
-535 525 0
-535 13 0
535 -525 -13 0
-536 -535 0
536 535 0
-537 532 0
-537 534 0
-537 536 0
-537 10 0
537 -536 -534 -532 -10 0
-538 -537 0
538 537 0
-539 519 0
-539 12 0
539 -519 -12 0
-540 -539 0
540 539 0
-541 522 0
-541 15 0
541 -522 -15 0
-542 -541 0
542 541 0
-543 525 0
-543 17 0
543 -525 -17 0
-544 -543 0
544 543 0
-545 540 0
-545 542 0
-545 544 0
-545 14 0
545 -544 -542 -540 -14 0
-546 -545 0
546 545 0
-547 519 0
-547 16 0
547 -519 -16 0
-548 -547 0
548 547 0
-549 522 0
-549 19 0
549 -522 -19 0
-550 -549 0
550 549 0
-551 525 0
-551 21 0
551 -525 -21 0
-552 -551 0
552 551 0
-553 548 0
-553 550 0
-553 552 0
-553 18 0
553 -552 -550 -548 -18 0
-554 -553 0
554 553 0
-555 519 0
-555 20 0
555 -519 -20 0
-556 -555 0
556 555 0
-557 522 0
-557 23 0
557 -522 -23 0
-558 -557 0
558 557 0
-559 525 0
-559 25 0
559 -525 -25 0
-560 -559 0
560 559 0
-561 556 0
-561 558 0
-561 560 0
-561 22 0
561 -560 -558 -556 -22 0
-562 -561 0
562 561 0
-563 519 0
-563 24 0
563 -519 -24 0
-564 -563 0
564 563 0
-565 522 0
-565 27 0
565 -522 -27 0
-566 -565 0
566 565 0
-567 525 0
-567 29 0
567 -525 -29 0
-568 -567 0
568 567 0
-569 564 0
-569 566 0
-569 568 0
-569 26 0
569 -568 -566 -564 -26 0
-570 -569 0
570 569 0
-571 519 0
-571 28 0
571 -519 -28 0
-572 -571 0
572 571 0
-573 522 0
-573 31 0
573 -522 -31 0
-574 -573 0
574 573 0
-575 525 0
-575 33 0
575 -525 -33 0
-576 -575 0
576 575 0
-577 572 0
-577 574 0
-577 576 0
-577 30 0
577 -576 -574 -572 -30 0
-578 -577 0
578 577 0
-579 519 0
-579 32 0
579 -519 -32 0
-580 -579 0
580 579 0
-581 522 0
-581 35 0
581 -522 -35 0
-582 -581 0
582 581 0
-583 525 0
-583 36 0
583 -525 -36 0
-584 -583 0
584 583 0
-585 580 0
-585 582 0
-585 584 0
-585 34 0
585 -584 -582 -580 -34 0
-586 -585 0
586 585 0
319 -587 0
-587 538 0
-587 546 0
-587 554 0
-587 562 0
-587 570 0
-587 578 0
-587 586 0
-319 587 -586 -578 -570 -562 -554 -546 -538 0
-588 -530 0
-588 -587 0
588 587 530 0
-589 -546 0
589 546 0
-590 538 0
-590 589 0
590 -589 -538 0
-591 -590 0
591 590 0
319 -592 0
-592 538 0
-592 591 0
-592 554 0
-319 592 -591 -554 -538 0
-593 -592 0
593 592 0
-594 -578 0
594 578 0
-595 538 0
-595 546 0
-595 570 0
-595 594 0
595 -594 -570 -546 -538 0
-596 -595 0
596 595 0
319 -597 0
-597 591 0
320 -597 0
-597 596 0
-320 -319 597 -596 -591 0
-598 -597 0
598 597 0
-599 -1 0
599 1 0
-600 -24 0
600 24 0
-601 600 0
-601 26 0
601 -600 -26 0
-602 -601 0
602 601 0
-603 -21 0
-603 -441 0
603 441 21 0
-604 440 0
-604 603 0
604 -603 -440 0
-605 -604 0
605 604 0
-606 519 0
-606 4 0
606 -519 -4 0
-607 -606 0
607 606 0
-608 522 0
-608 7 0
608 -522 -7 0
-609 -608 0
609 608 0
-610 525 0
-610 9 0
610 -525 -9 0
-611 -610 0
611 610 0
-612 -562 0
612 562 0
-613 -570 0
613 570 0
-614 554 0
-614 546 0
-614 613 0
614 -613 -554 -546 0
-615 -614 0
615 614 0
-616 -361 -65 0
-616 361 65 0
616 -361 65 0
616 361 -65 0
-617 -362 -131 0
-617 362 131 0
617 -362 131 0
617 362 -131 0
-618 -518 -215 0
-618 518 215 0
618 -518 215 0
618 518 -215 0
-619 -588 -293 0
-619 588 293 0
619 -588 293 0
619 588 -293 0
-620 -593 -298 0
-620 593 298 0
620 -593 298 0
620 593 -298 0
-318 -621 -306 0
318 -621 306 0
-318 621 306 0
318 621 -306 0
-622 -598 -311 0
-622 598 311 0
622 -598 311 0
622 598 -311 0
622 621 620 619 618 617 616 0
-324 10 0
324 -10 0
-325 14 0
325 -14 0
-326 9 0
326 -9 0
-327 387 0
327 -387 0
-328 599 0
328 -599 0
-329 2 0
329 -2 0
-330 383 0
330 -383 0
-331 401 0
331 -401 0
-332 419 0
332 -419 0
-333 437 0
333 -437 0
-334 452 0
334 -452 0
-335 602 0
335 -602 0
-336 481 0
336 -481 0
-337 500 0
337 -500 0
-338 364 0
338 -364 0
-339 602 0
339 -602 0
-340 27 0
340 -27 0
-341 472 0
341 -472 0
-342 605 0
342 -605 0
-343 371 0
343 -371 0
-344 390 0
344 -390 0
-345 407 0
345 -407 0
-346 425 0
346 -425 0
-347 444 0
347 -444 0
-348 459 0
348 -459 0
-350 488 0
350 -488 0
-351 507 0
351 -507 0
-352 607 0
352 -607 0
-353 609 0
353 -609 0
-354 611 0
354 -611 0
-355 6 0
355 -6 0
-356 538 0
356 -538 0
-357 546 0
357 -546 0
-358 612 0
358 -612 0
-359 554 0
359 -554 0
-360 615 0
360 -615 0
